NAME : A-n60-k9.798011.tour
COMMENT : Length = 798011
COMMENT : Found by LKH [Keld Helsgaun] Sun Dec 17 18:42:41 2017
TYPE : TOUR
DIMENSION : 68
TOUR_SECTION
1
15
48
24
59
25
63
3
37
55
6
46
43
67
39
60
8
30
58
38
64
17
21
4
12
5
22
54
31
62
26
47
41
7
32
29
45
50
61
19
14
9
28
18
27
65
42
34
53
20
36
56
51
40
66
16
44
57
13
33
10
52
68
35
2
49
23
11
-1
EOF
